10	5
0	2	2	1
1	1	4
2	2	3	4
3	3	10	8	5
4	2	5	10
5	1	7
6	1	9
7	1	6
8	1	11
9	1	11
10	1	11
11	0
0	0	0	0	0	0	0
1	5	1	4	1	5	3
2	7	0	3	4	2	0
3	10	3	0	4	4	3
4	6	0	0	0	1	0
5	2	2	0	1	1	4
6	2	0	2	2	0	2
7	3	3	0	3	4	2
8	10	1	4	1	3	2
9	5	2	0	5	5	5
10	3	4	1	3	5	1
11	0	0	0	0	0	0
4	4	5	5	5
